17461
1 0 1 0 0 1 1 0 1 0 0 1 1 0 1 1 0 0 0 0 1 0 0 0 1 0 0 1 0 0 
20 11 20 2 20 5 2 24 14 0 24 8 8 20 2 14 14 0 5 11 2 0 5 2 5 8 2 24 5 24 5 11 6 11 20 20 24 15 0 14 0 14 15 8 24 14 0 20 27 8 5 14 14 5 20 20 2 11 0 14 0 5 20 11 11 11 24 0 5 24 20 6 11 0 24 8 24 20 14 24 20 0 20 0 2 0 2 0 20 5 2 24 0 11 0 5 14 2 27 20 8 0 14 11 14 5 0 11 14 8 14 14 0 11 11 27 24 24 24 24 5 8 11 20 8 0 5 24 0 12 0 11 24 5 8 14 11 5 20 11 0 8 20 14 8 27 11 5 14 5 

Total Run Time: 244474 ms.
